#######################################
### Exact MIP solver for the HHCRSP ###
#######################################
-- Instance file: new-instances/HHCRSP_50_10_29_1.6_C_RC.txt
-- Max threads: 4
-- Time limit: 999999 seconds
-- Use initial solution: No
Trivial flow violations prevented generating 5696 variables.
Model exported.
Version identifier: 20.1.0.0 | 2020-11-10 | 9bedb6d68
CPXPARAM_Threads                                 4
CPXPARAM_TimeLimit                               999999
Parallel mode: deterministic, using up to 4 threads for concurrent optimization:
 * Starting dual Simplex on 1 thread...
 * Starting Barrier on 3 threads...
Tried aggregator 1 time.
LP Presolve eliminated 1260 rows and 304 columns.
Reduced LP has 6114 rows, 5965 columns, and 47726 nonzeros.
Presolve time = 0.03 sec. (14.40 ticks)
Symmetry aggregator did 3990 additional substitutions.

Iteration log . . .
Iteration:     1   Dual objective     =             0.000000
Iteration:   210   Dual objective     =           122.500000

Dual crossover.
  Dual:  Fixing 67 variables.
       66 DMoves:  Infeasibility  1.41553783e-14  Objective  1.22512780e+02
        0 DMoves:  Infeasibility  1.00475531e-14  Objective  1.22512780e+02
  Dual:  Pushed 9, exchanged 58.
  Primal:  Fixing 20 variables.
       19 PMoves:  Infeasibility  1.11022302e-16  Objective  1.22512780e+02
        0 PMoves:  Infeasibility  1.11022302e-16  Objective  1.22512780e+02
  Primal:  Pushed 2, exchanged 18.

Dual simplex solved model.


Solution status from MIP model:
-- Processing time: 0.05 sec.
-- Memory used: 72.332 MB
-- Best bound: inf
-- Obj value: 122.513
-- Gap: inf%
-- Total distance: 367.538
-- Total tardiness: 0
-- Largest tardiness: 0
